Maximize

5 x_0 + 5 x_1 + 5 x_2 + 5 x_3 + 5 x_4 + 2 x_5 + 1 x_6 + 1 x_7 + 1 x_8 + 1 x_9


Subject To

a0: 1 x_0 + 0 x_1 + 1 x_2 + 0 x_3 + 0 x_4 + 1 x_5 + 1 x_6 + 0 x_7 + 0 x_8 + 0 x_9 >= 1
a1: 1 x_0 + 0 x_1 + 0 x_2 + 1 x_3 + 0 x_4 + 0 x_5 + 0 x_6 + 1 x_7 + 1 x_8 + 0 x_9 >= 1
a2: 0 x_0 + 1 x_1 + 0 x_2 + 1 x_3 + 0 x_4 + 0 x_5 + 1 x_6 + 0 x_7 + 0 x_8 + 1 x_9 >= 1
a3: 0 x_0 + 1 x_1 + 0 x_2 + 0 x_3 + 1 x_4 + 1 x_5 + 0 x_6 + 1 x_7 + 0 x_8 + 0 x_9 >= 1
a4: 0 x_0 + 0 x_1 + 1 x_2 + 0 x_3 + 1 x_4 + 0 x_5 + 0 x_6 + 0 x_7 + 1 x_8 + 1 x_9 >= 1
b0: x_0 + x_8 <= 1
b1: x_0 + x_9 <= 1
b2: x_1 + x_7 <= 1
b3: x_1 + x_8 <= 1
b4: x_2 + x_6 <= 1
b5: x_2 + x_7 <= 1
b6: x_3 + x_5 <= 1
b7: x_3 + x_6 <= 1
b8: x_4 + x_9 <= 1
b9: x_5 + x_3 <= 1
b10: x_6 + x_2 <= 1
b11: x_6 + x_3 <= 1
b12: x_7 + x_1 <= 1
b13: x_7 + x_2 <= 1
b14: x_8 + x_0 <= 1
b15: x_8 + x_1 <= 1
b16: x_9 + x_0 <= 1
b17: x_9 + x_4 <= 1
c0: 1234.5 x_0 + 1098.7 x_1 + 1654.3 x_2 + 1210.9 x_3 + 1876.5 x_4 + 1432.1 x_5 + 1234.5 x_6 + 1099.9 x_7 + 1199.9 x_8 + 1000.0 x_9 <= 5000




Binary

x_0 x_1 x_2 x_3 x_4 x_5 x_6 x_7 x_8 x_9

 


End
